
Gurobi 12.0.2 (win64) logging started Thu Jan  8 11:19:25 2026

Set parameter LogFile to value "C:\Ioana\_uni\honours\slp\algorithm\Main_files\results\paracetamol_final_final_hepato\Task_002_Sample003_irr_gurobi.log"
Gurobi Optimizer version 12.0.2 build v12.0.2rc0 (win64 - Windows 11.0 (26100.2))

CPU model: Intel(R) Core(TM) Ultra 5 125H, instruction set [SSE2|AVX|AVX2]
Thread count: 14 physical cores, 18 logical processors, using up to 18 threads

Non-default parameters:
TimeLimit  2200

Optimize a model with 47236 rows, 34503 columns and 146713 nonzeros
Model fingerprint: 0xda052979
Variable types: 17254 continuous, 17249 integer (17249 binary)
Coefficient statistics:
  Matrix range     [1e-04, 8e+04]
  Objective range  [2e-05, 1e+01]
  Bounds range     [1e+00, 1e+03]
  RHS range        [1e+00, 1e+00]
Found heuristic solution: objective 2.0668061
Presolve removed 33427 rows and 23489 columns
Presolve time: 0.42s
Presolved: 13809 rows, 11014 columns, 44717 nonzeros
Variable types: 5461 continuous, 5553 integer (5553 binary)

Root relaxation: objective 1.054478e-03, 662 iterations, 0.03 seconds (0.05 work units)

    Nodes    |    Current Node    |     Objective Bounds      |     Work
 Expl Unexpl |  Obj  Depth IntInf | Incumbent    BestBd   Gap | It/Node Time

     0     0    0.00105    0    6    2.06681    0.00105   100%     -    0s
H    0     0                       1.0158679    0.00105   100%     -    0s
     0     0    0.90335    0    4    1.01587    0.90335  11.1%     -    0s
     0     0    0.90789    0    6    1.01587    0.90789  10.6%     -    0s
     0     0    0.94331    0    5    1.01587    0.94331  7.14%     -    0s

Explored 1 nodes (1815 simplex iterations) in 0.93 seconds (0.85 work units)
Thread count was 18 (of 18 available processors)

Solution count 3: 1.01587 1.01587 2.06681 

Optimal solution found (tolerance 1.00e-04)
Best objective 1.015867940600e+00, best bound 1.015867940600e+00, gap 0.0000%
